Geographic Exponential Decay
80 304 266 155 249 94 289 225 234 162 157 120 131 254 316 263 100 147 15 124 199 140 126 186 114 119 79 55 272 40 253 83 1 2 182 259 247 0 143 146 72 139 32 296 128 228 196 258 88 295 207 89 141 125 160 137 174 34 14 170 156 206 25 175 24 152 278 214 136 37 309 48 75 98 10 52 121 313 95 33 19
p edge 320 320
e 0 318 28.0
e 0 131 77.0
e 0 58 4.0
e 1 248 17.0
e 1 164 63.0
e 1 36 99.0
e 1 0 36.0
e 2 86 9.0
e 2 219 36.0
e 2 99 2.0
e 2 1 100.0
e 3 279 1.0
e 3 2 27.0
e 4 188 25.0
e 4 3 22.0
e 5 53 4.0
e 5 4 2.0
e 6 179 3.0
e 6 5 6.0
e 7 32 52.0
e 7 6 5.0
e 8 37 32.0
e 8 7 9.0
e 9 273 2.0
e 9 8 4.0
e 10 224 36.0
e 10 229 83.0
e 10 230 41.0
e 10 9 67.0
e 11 44 4.0
e 11 10 44.0
e 12 13 8.0
e 12 11 8.0
e 14 238 74.0
e 14 205 9.0
e 14 220 60.0
e 14 12 74.0
e 15 20 87.0
e 15 104 24.0
e 15 265 65.0
e 15 14 74.0
e 16 59 1.0
e 16 15 38.0
e 17 38 2.0
e 17 16 1.0
e 18 257 1.0
e 18 17 2.0
e 19 177 80.0
e 19 241 66.0
e 19 116 72.0
e 19 18 53.0
e 21 280 2.0
e 21 19 94.0
e 22 194 1.0
e 22 21 2.0
e 23 237 2.0
e 23 22 1.0
e 24 96 76.0
e 24 294 84.0
e 24 198 42.0
e 24 23 22.0
e 25 264 57.0
e 25 111 82.0
e 25 26 89.0
e 25 24 38.0
e 27 260 6.0
e 27 25 78.0
e 28 101 6.0
e 28 27 2.0
e 29 54 12.0
e 29 28 4.0
e 30 31 1.0
e 30 29 4.0
e 32 272 27.0
e 32 314 38.0
e 33 291 12.0
e 33 258 65.0
e 33 60 92.0
e 33 30 71.0
e 34 67 50.0
e 34 127 39.0
e 34 98 78.0
e 34 33 84.0
e 35 88 40.0
e 35 34 6.0
e 37 123 43.0
e 37 313 71.0
e 39 274 4.0
e 39 35 2.0
e 40 275 70.0
e 40 169 95.0
e 40 252 16.0
e 40 39 48.0
e 41 55 72.0
e 41 40 80.0
e 42 126 91.0
e 42 41 5.0
e 43 180 7.0
e 43 42 1.0
e 45 110 1.0
e 45 43 4.0
e 46 285 7.0
e 46 45 1.0
e 47 48 55.0
e 47 46 6.0
e 48 218 96.0
e 48 310 11.0
e 49 231 12.0
e 49 149 42.0
e 49 47 26.0
e 50 126 17.0
e 51 233 2.0
e 51 49 27.0
e 52 272 9.0
e 52 167 55.0
e 52 281 61.0
e 55 223 53.0
e 55 301 64.0
e 56 78 2.0
e 56 51 4.0
e 57 133 1.0
e 57 56 2.0
e 61 85 4.0
e 61 57 1.0
e 62 112 2.0
e 62 61 1.0
e 63 240 2.0
e 63 62 5.0
e 64 244 1.0
e 64 63 2.0
e 65 93 1.0
e 65 64 1.0
e 66 145 6.0
e 66 65 1.0
e 68 147 98.0
e 68 66 1.0
e 69 153 2.0
e 69 68 2.0
e 70 124 88.0
e 71 204 1.0
e 71 69 2.0
e 72 142 53.0
e 72 73 99.0
e 72 271 73.0
e 72 71 51.0
e 74 258 11.0
e 75 302 90.0
e 75 249 80.0
e 75 105 88.0
e 75 72 72.0
e 76 210 1.0
e 76 75 76.0
e 77 190 47.0
e 79 206 69.0
e 79 207 67.0
e 79 103 46.0
e 80 292 1.0
e 80 76 1.0
e 81 200 2.0
e 81 80 3.0
e 82 287 2.0
e 82 81 1.0
e 83 317 15.0
e 83 247 11.0
e 83 102 65.0
e 84 87 2.0
e 84 82 3.0
e 88 277 44.0
e 88 256 13.0
e 89 90 48.0
e 89 262 47.0
e 89 91 68.0
e 89 84 30.0
e 92 94 83.0
e 94 201 84.0
e 94 95 88.0
e 95 266 70.0
e 95 143 71.0
e 97 202 8.0
e 97 89 37.0
e 98 206 47.0
e 98 100 48.0
e 100 106 89.0
e 100 185 85.0
e 107 108 11.0
e 107 97 9.0
e 109 283 1.0
e 109 107 4.0
e 113 313 100.0
e 114 299 23.0
e 114 115 1.0
e 114 117 46.0
e 114 109 67.0
e 118 225 51.0
e 119 120 18.0
e 119 121 7.0
e 119 266 7.0
e 120 121 47.0
e 120 122 79.0
e 121 124 43.0
e 124 165 40.0
e 125 126 86.0
e 125 128 18.0
e 125 259 15.0
e 128 276 38.0
e 128 129 2.0
e 130 131 41.0
e 131 132 83.0
e 134 154 1.0
e 134 114 64.0
e 135 259 11.0
e 136 286 42.0
e 136 137 56.0
e 136 138 85.0
e 137 139 87.0
e 137 209 92.0
e 139 186 41.0
e 139 140 61.0
e 140 141 83.0
e 140 221 93.0
e 141 143 78.0
e 141 144 70.0
e 143 146 26.0
e 146 147 36.0
e 146 148 8.0
e 147 172 71.0
e 150 182 50.0
e 150 134 10.0
e 151 222 1.0
e 151 150 7.0
e 152 192 47.0
e 152 189 83.0
e 152 155 85.0
e 155 258 79.0
e 155 156 74.0
e 156 157 42.0
e 156 158 2.0
e 157 159 80.0
e 157 187 87.0
e 160 284 86.0
e 160 161 9.0
e 160 178 40.0
e 160 151 36.0
e 162 288 90.0
e 162 163 51.0
e 162 232 77.0
e 162 160 82.0
e 166 168 1.0
e 166 162 8.0
e 170 313 59.0
e 170 304 47.0
e 170 171 38.0
e 173 234 99.0
e 173 166 7.0
e 174 175 53.0
e 174 249 40.0
e 174 176 65.0
e 175 225 42.0
e 175 181 17.0
e 182 183 70.0
e 182 184 45.0
e 186 190 9.0
e 186 226 5.0
e 191 193 6.0
e 191 173 9.0
e 195 196 17.0
e 196 197 3.0
e 196 199 36.0
e 199 212 22.0
e 199 206 18.0
e 203 225 63.0
e 207 211 55.0
e 207 208 76.0
e 213 289 62.0
e 214 227 96.0
e 214 315 84.0
e 214 215 37.0
e 214 191 25.0
e 216 217 2.0
e 216 214 73.0
e 228 234 31.0
e 228 319 2.0
e 228 235 59.0
e 234 290 10.0
e 236 239 1.0
e 236 216 2.0
e 242 243 1.0
e 242 236 1.0
e 245 246 1.0
e 245 242 4.0
e 247 249 20.0
e 247 250 69.0
e 251 253 42.0
e 253 254 15.0
e 253 255 4.0
e 254 259 58.0
e 254 261 8.0
e 263 266 73.0
e 263 267 78.0
e 263 316 91.0
e 268 269 1.0
e 268 245 4.0
e 270 289 53.0
e 272 278 96.0
e 278 282 9.0
e 278 289 6.0
e 293 295 20.0
e 293 268 3.0
e 295 296 75.0
e 295 297 33.0
e 296 298 69.0
e 296 300 49.0
e 303 304 1.0
e 304 305 3.0
e 306 307 1.0
e 306 293 2.0
e 308 309 90.0
e 309 310 4.0
e 309 311 72.0
e 312 316 83.0
